BAYES
262
2 2 2 2 2 2 2 2 2 2 2 2 2 2 2 2 2 2 2 2 2 2 2 2 2 2 2 2 2 2 2 2 2 2 2 2 2 2 2 2 2 2 2 2 2 2 2 2 2 2 2 2 2 2 2 2 2 2 2 2 2 2 2 2 2 2 2 2 2 2 2 2 2 2 2 2 2 2 2 2 2 2 2 2 2 2 2 2 2 2 2 2 2 2 2 2 2 2 2 2 2 2 2 2 2 2 2 2 2 2 2 2 2 2 2 2 2 2 2 2 2 2 2 2 2 2 2 2 2 2 2 2 2 2 2 2 2 2 2 2 2 2 2 2 2 2 2 2 2 2 2 2 2 2 2 2 2 2 2 2 2 2 2 2 2 2 2 2 2 2 2 2 2 2 2 2 2 2 2 2 2 2 2 2 2 2 2 2 2 2 2 2 2 2 2 2 2 2 2 2 2 2 2 2 2 2 2 2 2 2 2 2 2 2 2 2 2 2 2 2 2 2 2 2 2 2 2 2 2 2 2 2 2 2 2 2 2 2 2 2 2 2 2 2 2 2 2 2 2 2 2 2 2 2 2 2 2 2 2 2 2 2
262
1 0
2 0 1
1 2
3 0 2 3
1 4
3 3 4 5
1 6
3 5 6 7
1 8
3 7 8 9
2 9 10
3 0 8 11
2 11 12
1 13
3 8 13 14
2 14 15
1 16
3 16 8 17
3 2 17 18
2 18 19
1 20
3 20 17 21
2 21 22
1 23
3 23 20 24
2 24 25
2 23 26
3 23 2 27
3 2 27 28
2 28 29
3 2 23 30
3 20 30 31
2 31 32
1 33
3 23 33 34
2 34 35
3 33 4 36
3 2 36 37
2 37 38
3 4 33 39
3 20 39 40
2 40 41
1 42
3 42 20 43
3 33 43 44
2 44 45
1 46
3 46 42 47
2 47 48
2 46 49
3 46 4 50
3 4 50 51
2 51 52
3 46 33 53
3 33 53 54
2 54 55
3 4 46 56
3 42 56 57
2 57 58
3 33 46 59
1 60
3 60 59 61
2 61 62
3 46 60 63
2 63 64
3 60 2 65
3 4 65 66
2 66 67
3 60 23 68
3 33 68 69
2 69 70
3 2 60 71
3 42 71 72
2 72 73
3 20 42 74
3 60 74 75
2 75 76
3 23 60 77
3 60 77 78
2 78 79
1 80
1 81
3 80 81 82
3 60 82 83
2 83 84
3 46 81 85
2 85 86
3 81 6 87
3 4 87 88
2 88 89
3 81 80 90
3 33 90 91
2 91 92
3 6 81 93
3 42 93 94
2 94 95
1 96
3 96 42 97
3 81 97 98
2 98 99
1 100
3 100 96 101
2 101 102
2 100 103
3 100 6 104
3 6 104 105
2 105 106
3 100 80 107
3 80 107 108
2 108 109
3 100 81 110
3 81 110 111
2 111 112
3 6 100 113
3 96 113 114
2 114 115
3 80 100 116
1 117
3 117 116 118
2 118 119
3 100 117 120
2 120 121
3 117 2 122
3 6 122 123
2 123 124
3 117 23 125
3 80 125 126
2 126 127
3 117 60 128
3 81 128 129
2 129 130
3 2 117 131
3 96 131 132
2 132 133
3 20 96 134
3 117 134 135
2 135 136
3 23 117 137
3 117 137 138
2 138 139
1 140
3 33 140 141
3 117 141 142
2 142 143
3 100 140 144
2 144 145
3 140 4 146
3 6 146 147
2 147 148
3 140 33 149
3 80 149 150
2 150 151
3 140 46 152
3 81 152 153
2 153 154
3 4 140 155
3 96 155 156
2 156 157
3 42 96 158
3 140 158 159
2 159 160
3 60 117 161
3 140 161 162
2 162 163
3 46 140 164
3 140 164 165
2 165 166
3 81 100 167
3 140 167 168
2 168 169
3 96 117 170
3 170 140 171
3 171 100 172
1 173
3 172 173 174
2 174 175
3 100 173 176
2 176 177
1 178
3 173 178 179
2 179 180
3 173 8 181
3 6 181 182
2 182 183
3 96 181 184
2 184 185
3 173 16 186
3 80 186 187
2 187 188
3 117 186 189
2 189 190
1 191
3 173 191 192
3 81 192 193
2 193 194
3 140 192 195
2 195 196
3 46 191 197
2 197 198
3 42 60 199
3 199 46 200
3 200 81 201
3 201 191 202
2 202 203
1 204
3 191 204 205
2 205 206
3 191 8 207
3 4 207 208
2 208 209
3 42 207 210
2 210 211
3 191 16 212
3 33 212 213
2 213 214
3 60 212 215
2 215 216
3 96 0 217
3 6 217 218
2 218 219
3 96 20 220
3 80 220 221
2 221 222
3 0 96 223
3 96 223 224
2 224 225
3 23 80 226
2 226 227
3 80 6 228
3 2 228 229
2 229 230
3 6 80 231
3 20 231 232
2 232 233
3 20 23 234
3 234 33 235
3 235 80 236
3 236 16 237
2 237 238
3 42 0 239
3 4 239 240
2 240 241
3 0 42 242
3 42 242 243
2 243 244
3 23 16 245
2 245 246
3 20 0 247
3 2 247 248
2 248 249
3 0 20 250
3 20 250 251
2 251 252
1 253
3 16 253 254
2 254 255
3 0 6 256
2 256 257
3 0 4 258
2 258 259
3 0 2 260
2 260 261

2
0.5 0.5

4
0.0 1.0 0.0 1.0

2
0.5 0.5

8
1.0 0.0 0.0 1.0 0.0 1.0 0.0 1.0

2
0.5 0.5

8
1.0 0.0 0.0 1.0 0.0 1.0 0.0 1.0

2
0.5 0.5

8
1.0 0.0 0.0 1.0 0.0 1.0 0.0 1.0

2
0.5 0.5

8
1.0 0.0 0.0 1.0 0.0 1.0 0.0 1.0

4
0.8998 0.1002 0.0 1.0

8
0.0 1.0 0.0 1.0 0.0 1.0 0.0 1.0

4
0.66713 0.33287 0.0 1.0

2
0.5 0.5

8
0.0 1.0 0.0 1.0 1.0 0.0 0.0 1.0

4
0.77687 0.22313 0.0 1.0

2
0.5 0.5

8
0.0 1.0 1.0 0.0 1.0 0.0 0.0 1.0

8
0.0 1.0 0.0 1.0 1.0 0.0 0.0 1.0

4
0.66713 0.33287 0.0 1.0

2
0.5 0.5

8
0.0 1.0 0.0 1.0 1.0 0.0 0.0 1.0

4
0.66713 0.33287 0.0 1.0

2
0.5 0.5

8
0.0 1.0 0.0 1.0 0.0 1.0 0.0 1.0

4
0.50342 0.49658 0.0 1.0

4
0.0 1.0 0.0 1.0

8
0.0 1.0 0.0 1.0 1.0 0.0 0.0 1.0

8
0.0 1.0 0.0 1.0 1.0 0.0 0.0 1.0

4
0.50342 0.49658 0.0 1.0

8
0.0 1.0 0.0 1.0 1.0 0.0 0.0 1.0

8
0.0 1.0 0.0 1.0 1.0 0.0 0.0 1.0

4
0.50342 0.49658 0.0 1.0

2
0.5 0.5

8
0.0 1.0 0.0 1.0 0.0 1.0 0.0 1.0

4
0.50342 0.49658 0.0 1.0

8
0.0 1.0 0.0 1.0 1.0 0.0 0.0 1.0

8
0.0 1.0 0.0 1.0 1.0 0.0 0.0 1.0

4
0.50342 0.49658 0.0 1.0

8
0.0 1.0 0.0 1.0 1.0 0.0 0.0 1.0

8
0.0 1.0 0.0 1.0 1.0 0.0 0.0 1.0

4
0.50342 0.49658 0.0 1.0

2
0.5 0.5

8
0.0 1.0 0.0 1.0 1.0 0.0 0.0 1.0

8
0.0 1.0 0.0 1.0 1.0 0.0 0.0 1.0

4
0.50342 0.49658 0.0 1.0

2
0.5 0.5

8
0.0 1.0 0.0 1.0 0.0 1.0 0.0 1.0

4
0.50342 0.49658 0.0 1.0

4
0.0 1.0 0.0 1.0

8
0.0 1.0 0.0 1.0 1.0 0.0 0.0 1.0

8
0.0 1.0 0.0 1.0 1.0 0.0 0.0 1.0

4
0.50342 0.49658 0.0 1.0

8
0.0 1.0 0.0 1.0 1.0 0.0 0.0 1.0

8
0.0 1.0 0.0 1.0 1.0 0.0 0.0 1.0

4
0.50342 0.49658 0.0 1.0

8
0.0 1.0 0.0 1.0 1.0 0.0 0.0 1.0

8
0.0 1.0 0.0 1.0 1.0 0.0 0.0 1.0

4
0.50342 0.49658 0.0 1.0

8
0.0 1.0 0.0 1.0 1.0 0.0 0.0 1.0

2
0.5 0.5

8
0.0 1.0 0.0 1.0 1.0 0.0 0.0 1.0

4
0.50342 0.49658 0.0 1.0

8
0.0 1.0 0.0 1.0 0.0 1.0 0.0 1.0

4
0.50342 0.49658 0.0 1.0

8
0.0 1.0 0.0 1.0 1.0 0.0 0.0 1.0

8
0.0 1.0 0.0 1.0 1.0 0.0 0.0 1.0

4
0.50342 0.49658 0.0 1.0

8
0.0 1.0 0.0 1.0 1.0 0.0 0.0 1.0

8
0.0 1.0 0.0 1.0 1.0 0.0 0.0 1.0

4
0.50342 0.49658 0.0 1.0

8
0.0 1.0 0.0 1.0 1.0 0.0 0.0 1.0

8
0.0 1.0 0.0 1.0 1.0 0.0 0.0 1.0

4
0.50342 0.49658 0.0 1.0

8
0.0 1.0 0.0 1.0 1.0 0.0 0.0 1.0

8
0.0 1.0 0.0 1.0 1.0 0.0 0.0 1.0

4
0.50342 0.49658 0.0 1.0

8
0.0 1.0 0.0 1.0 1.0 0.0 0.0 1.0

8
0.0 1.0 0.0 1.0 1.0 0.0 0.0 1.0

4
0.50342 0.49658 0.0 1.0

2
0.5 0.5

2
0.5 0.5

8
0.0 1.0 0.0 1.0 1.0 0.0 0.0 1.0

8
0.0 1.0 0.0 1.0 1.0 0.0 0.0 1.0

4
0.50342 0.49658 0.0 1.0

8
0.0 1.0 0.0 1.0 0.0 1.0 0.0 1.0

4
0.50342 0.49658 0.0 1.0

8
0.0 1.0 0.0 1.0 1.0 0.0 0.0 1.0

8
0.0 1.0 0.0 1.0 1.0 0.0 0.0 1.0

4
0.50342 0.49658 0.0 1.0

8
0.0 1.0 0.0 1.0 1.0 0.0 0.0 1.0

8
0.0 1.0 0.0 1.0 1.0 0.0 0.0 1.0

4
0.50342 0.49658 0.0 1.0

8
0.0 1.0 0.0 1.0 1.0 0.0 0.0 1.0

8
0.0 1.0 0.0 1.0 1.0 0.0 0.0 1.0

4
0.50342 0.49658 0.0 1.0

2
0.5 0.5

8
0.0 1.0 0.0 1.0 1.0 0.0 0.0 1.0

8
0.0 1.0 0.0 1.0 1.0 0.0 0.0 1.0

4
0.50342 0.49658 0.0 1.0

2
0.5 0.5

8
0.0 1.0 0.0 1.0 0.0 1.0 0.0 1.0

4
0.50342 0.49658 0.0 1.0

4
0.0 1.0 0.0 1.0

8
0.0 1.0 0.0 1.0 1.0 0.0 0.0 1.0

8
0.0 1.0 0.0 1.0 1.0 0.0 0.0 1.0

4
0.50342 0.49658 0.0 1.0

8
0.0 1.0 0.0 1.0 1.0 0.0 0.0 1.0

8
0.0 1.0 0.0 1.0 1.0 0.0 0.0 1.0

4
0.50342 0.49658 0.0 1.0

8
0.0 1.0 0.0 1.0 1.0 0.0 0.0 1.0

8
0.0 1.0 0.0 1.0 1.0 0.0 0.0 1.0

4
0.50342 0.49658 0.0 1.0

8
0.0 1.0 0.0 1.0 1.0 0.0 0.0 1.0

8
0.0 1.0 0.0 1.0 1.0 0.0 0.0 1.0

4
0.50342 0.49658 0.0 1.0

8
0.0 1.0 0.0 1.0 1.0 0.0 0.0 1.0

2
0.5 0.5

8
0.0 1.0 0.0 1.0 1.0 0.0 0.0 1.0

4
0.50342 0.49658 0.0 1.0

8
0.0 1.0 0.0 1.0 0.0 1.0 0.0 1.0

4
0.50342 0.49658 0.0 1.0

8
0.0 1.0 0.0 1.0 1.0 0.0 0.0 1.0

8
0.0 1.0 0.0 1.0 1.0 0.0 0.0 1.0

4
0.50342 0.49658 0.0 1.0

8
0.0 1.0 0.0 1.0 1.0 0.0 0.0 1.0

8
0.0 1.0 0.0 1.0 1.0 0.0 0.0 1.0

4
0.50342 0.49658 0.0 1.0

8
0.0 1.0 0.0 1.0 1.0 0.0 0.0 1.0

8
0.0 1.0 0.0 1.0 1.0 0.0 0.0 1.0

4
0.50342 0.49658 0.0 1.0

8
0.0 1.0 0.0 1.0 1.0 0.0 0.0 1.0

8
0.0 1.0 0.0 1.0 1.0 0.0 0.0 1.0

4
0.50342 0.49658 0.0 1.0

8
0.0 1.0 0.0 1.0 1.0 0.0 0.0 1.0

8
0.0 1.0 0.0 1.0 1.0 0.0 0.0 1.0

4
0.50342 0.49658 0.0 1.0

8
0.0 1.0 0.0 1.0 1.0 0.0 0.0 1.0

8
0.0 1.0 0.0 1.0 1.0 0.0 0.0 1.0

4
0.50342 0.49658 0.0 1.0

2
0.5 0.5

8
0.0 1.0 0.0 1.0 1.0 0.0 0.0 1.0

8
0.0 1.0 0.0 1.0 1.0 0.0 0.0 1.0

4
0.50342 0.49658 0.0 1.0

8
0.0 1.0 0.0 1.0 0.0 1.0 0.0 1.0

4
0.50342 0.49658 0.0 1.0

8
0.0 1.0 0.0 1.0 1.0 0.0 0.0 1.0

8
0.0 1.0 0.0 1.0 1.0 0.0 0.0 1.0

4
0.50342 0.49658 0.0 1.0

8
0.0 1.0 0.0 1.0 1.0 0.0 0.0 1.0

8
0.0 1.0 0.0 1.0 1.0 0.0 0.0 1.0

4
0.50342 0.49658 0.0 1.0

8
0.0 1.0 0.0 1.0 1.0 0.0 0.0 1.0

8
0.0 1.0 0.0 1.0 1.0 0.0 0.0 1.0

4
0.50342 0.49658 0.0 1.0

8
0.0 1.0 0.0 1.0 1.0 0.0 0.0 1.0

8
0.0 1.0 0.0 1.0 1.0 0.0 0.0 1.0

4
0.50342 0.49658 0.0 1.0

8
0.0 1.0 0.0 1.0 1.0 0.0 0.0 1.0

8
0.0 1.0 0.0 1.0 1.0 0.0 0.0 1.0

4
0.50342 0.49658 0.0 1.0

8
0.0 1.0 0.0 1.0 1.0 0.0 0.0 1.0

8
0.0 1.0 0.0 1.0 1.0 0.0 0.0 1.0

4
0.50342 0.49658 0.0 1.0

8
0.0 1.0 0.0 1.0 1.0 0.0 0.0 1.0

8
0.0 1.0 0.0 1.0 1.0 0.0 0.0 1.0

4
0.50342 0.49658 0.0 1.0

8
0.0 1.0 0.0 1.0 1.0 0.0 0.0 1.0

8
0.0 1.0 0.0 1.0 1.0 0.0 0.0 1.0

4
0.50342 0.49658 0.0 1.0

8
1.0 0.0 0.0 1.0 0.0 1.0 0.0 1.0

8
1.0 0.0 0.0 1.0 0.0 1.0 0.0 1.0

8
1.0 0.0 0.0 1.0 0.0 1.0 0.0 1.0

2
0.5 0.5

8
1.0 0.0 0.0 1.0 0.0 1.0 0.0 1.0

4
0.8998 0.1002 0.0 1.0

8
0.0 1.0 0.0 1.0 0.0 1.0 0.0 1.0

4
0.66713 0.33287 0.0 1.0

2
0.5 0.5

8
0.0 1.0 0.0 1.0 1.0 0.0 0.0 1.0

4
0.77687 0.22313 0.0 1.0

8
0.0 1.0 1.0 0.0 1.0 0.0 0.0 1.0

8
0.0 1.0 0.0 1.0 1.0 0.0 0.0 1.0

4
0.66713 0.33287 0.0 1.0

8
0.0 1.0 0.0 1.0 1.0 0.0 0.0 1.0

4
0.66713 0.33287 0.0 1.0

8
0.0 1.0 1.0 0.0 1.0 0.0 0.0 1.0

8
0.0 1.0 0.0 1.0 1.0 0.0 0.0 1.0

4
0.66713 0.33287 0.0 1.0

8
0.0 1.0 0.0 1.0 1.0 0.0 0.0 1.0

4
0.66713 0.33287 0.0 1.0

2
0.5 0.5

8
0.0 1.0 1.0 0.0 1.0 0.0 0.0 1.0

8
0.0 1.0 0.0 1.0 1.0 0.0 0.0 1.0

4
0.66713 0.33287 0.0 1.0

8
0.0 1.0 0.0 1.0 1.0 0.0 0.0 1.0

4
0.66713 0.33287 0.0 1.0

8
0.0 1.0 0.0 1.0 0.0 1.0 0.0 1.0

4
0.66713 0.33287 0.0 1.0

8
1.0 0.0 0.0 1.0 0.0 1.0 0.0 1.0

8
1.0 0.0 0.0 1.0 0.0 1.0 0.0 1.0

8
1.0 0.0 0.0 1.0 0.0 1.0 0.0 1.0

8
1.0 0.0 0.0 1.0 0.0 1.0 0.0 1.0

4
0.8998 0.1002 0.0 1.0

2
0.5 0.5

8
0.0 1.0 0.0 1.0 1.0 0.0 0.0 1.0

4
0.77687 0.22313 0.0 1.0

8
0.0 1.0 1.0 0.0 1.0 0.0 0.0 1.0

8
0.0 1.0 0.0 1.0 1.0 0.0 0.0 1.0

4
0.66713 0.33287 0.0 1.0

8
0.0 1.0 0.0 1.0 1.0 0.0 0.0 1.0

4
0.66713 0.33287 0.0 1.0

8
0.0 1.0 1.0 0.0 1.0 0.0 0.0 1.0

8
0.0 1.0 0.0 1.0 1.0 0.0 0.0 1.0

4
0.66713 0.33287 0.0 1.0

8
0.0 1.0 0.0 1.0 1.0 0.0 0.0 1.0

4
0.66713 0.33287 0.0 1.0

8
0.0 1.0 0.0 1.0 1.0 0.0 0.0 1.0

8
0.0 1.0 0.0 1.0 1.0 0.0 0.0 1.0

4
0.50342 0.49658 0.0 1.0

8
0.0 1.0 0.0 1.0 1.0 0.0 0.0 1.0

8
0.0 1.0 0.0 1.0 1.0 0.0 0.0 1.0

4
0.50342 0.49658 0.0 1.0

8
0.0 1.0 0.0 1.0 1.0 0.0 0.0 1.0

8
0.0 1.0 0.0 1.0 1.0 0.0 0.0 1.0

4
0.50342 0.49658 0.0 1.0

8
0.0 1.0 0.0 1.0 0.0 1.0 0.0 1.0

4
0.50342 0.49658 0.0 1.0

8
0.0 1.0 0.0 1.0 1.0 0.0 0.0 1.0

8
0.0 1.0 0.0 1.0 1.0 0.0 0.0 1.0

4
0.50342 0.49658 0.0 1.0

8
0.0 1.0 0.0 1.0 1.0 0.0 0.0 1.0

8
0.0 1.0 0.0 1.0 1.0 0.0 0.0 1.0

4
0.50342 0.49658 0.0 1.0

8
1.0 0.0 0.0 1.0 0.0 1.0 0.0 1.0

8
1.0 0.0 0.0 1.0 0.0 1.0 0.0 1.0

8
1.0 0.0 0.0 1.0 0.0 1.0 0.0 1.0

8
1.0 0.0 0.0 1.0 0.0 1.0 0.0 1.0

4
0.8998 0.1002 0.0 1.0

8
0.0 1.0 0.0 1.0 1.0 0.0 0.0 1.0

8
0.0 1.0 0.0 1.0 1.0 0.0 0.0 1.0

4
0.50342 0.49658 0.0 1.0

8
0.0 1.0 0.0 1.0 1.0 0.0 0.0 1.0

8
0.0 1.0 0.0 1.0 1.0 0.0 0.0 1.0

4
0.50342 0.49658 0.0 1.0

8
0.0 1.0 0.0 1.0 0.0 1.0 0.0 1.0

4
0.66713 0.33287 0.0 1.0

8
0.0 1.0 0.0 1.0 1.0 0.0 0.0 1.0

8
0.0 1.0 0.0 1.0 1.0 0.0 0.0 1.0

4
0.50342 0.49658 0.0 1.0

8
0.0 1.0 0.0 1.0 1.0 0.0 0.0 1.0

8
0.0 1.0 0.0 1.0 1.0 0.0 0.0 1.0

4
0.50342 0.49658 0.0 1.0

2
0.5 0.5

8
0.0 1.0 0.0 1.0 1.0 0.0 0.0 1.0

4
0.77687 0.22313 0.0 1.0

8
0.0 1.0 0.0 1.0 0.0 1.0 0.0 1.0

4
0.50342 0.49658 0.0 1.0

8
0.0 1.0 0.0 1.0 0.0 1.0 0.0 1.0

4
0.50342 0.49658 0.0 1.0

8
0.0 1.0 0.0 1.0 0.0 1.0 0.0 1.0

4
0.50342 0.49658 0.0 1.0